32      4       
15      20      20      12      
0       0       0       0       0       3       2       4       6       
4       1       5       1       1       2       3       5       
10      1       3       8       1       2       7       10      
9       1       11      1       5       2       7       10      
1       5       1       9       6       3       8       9       10      
6       1       16      1       5       1       7       
5       5       2       17      6       2       8       9       
7       2       8       8       1       1       11      
7       7       10      7       4       1       11      
7       2       1       12      1       1       11      
8       3       1       20      1       2       12      14      
5       3       5       1       6       1       13      
6       1       1       13      1       2       15      16      
2       3       8       1       1       2       16      17      
2       10      6       1       1       2       17      23      
8       1       4       1       1       4       19      20      21      23      
9       7       13      7       2       1       18      
3       5       1       1       1       3       19      20      21      
10      1       1       1       9       2       22      24      
5       7       1       8       6       3       24      25      29      
2       1       3       1       3       3       24      25      29      
4       1       1       1       1       3       25      28      29      
1       15      9       4       9       2       24      29      
7       3       9       10      1       3       26      27      28      
4       7       8       1       1       2       26      27      
3       10      2       1       1       2       30      31      
10      1       7       10      6       2       30      31      
10      4       1       1       1       2       30      31      
5       2       1       1       1       2       30      31      
5       2       10      1       1       1       32      
4       1       1       1       6       1       32      
0       0       0       0       0       0       
